(set-logic QF_BV)
(declare-fun _substvar_876_ () (_ BitVec 1))
(declare-fun _substvar_878_ () (_ BitVec 1))
(declare-fun _substvar_572_ () (_ BitVec 64))
(declare-fun _substvar_201_ () (_ BitVec 1))
(declare-fun _substvar_213_ () (_ BitVec 1))
(declare-fun _substvar_197_ () (_ BitVec 64))
(declare-fun _substvar_259_ () (_ BitVec 1))
(declare-fun _substvar_589_ () (_ BitVec 1))
(declare-fun _substvar_874_ () (_ BitVec 1))
(declare-fun _substvar_588_ () (_ BitVec 1))
(declare-fun _substvar_881_ () (_ BitVec 1))
(declare-fun _substvar_590_ () (_ BitVec 1))
(declare-fun _substvar_202_ () (_ BitVec 1))
(declare-fun _substvar_591_ () (_ BitVec 1))
(declare-fun _substvar_578_ () (_ BitVec 1))
(declare-fun _substvar_494_ () Bool)
(declare-fun _substvar_879_ () (_ BitVec 1))
(declare-fun _substvar_207_ () (_ BitVec 1))
(declare-fun _substvar_204_ () (_ BitVec 1))
(declare-fun _substvar_214_ () (_ BitVec 1))
(declare-fun _substvar_595_ () (_ BitVec 1))
(declare-fun _substvar_208_ () (_ BitVec 1))
(declare-fun _substvar_192_ () (_ BitVec 64))
(declare-fun _substvar_487_ () Bool)
(declare-fun _substvar_579_ () (_ BitVec 1))
(declare-fun _substvar_573_ () (_ BitVec 64))
(declare-fun _substvar_198_ () (_ BitVec 1))
(declare-fun _substvar_199_ () (_ BitVec 1))
(assert (= _substvar_573_ (bvsub _substvar_572_ _substvar_192_)))
(assert (= (_ bv0 64) (bvsdiv _substvar_573_ _substvar_197_)))
(assert (= (= _substvar_198_ (_ bv1 1)) false))
(assert (= _substvar_199_ _substvar_198_))
(assert (= (= _substvar_201_ (_ bv1 1)) (bvslt _substvar_572_ (_ bv0 64))))
(assert (= _substvar_202_ _substvar_201_))
(assert (= (= _substvar_204_ (_ bv1 1)) false))
(assert (= _substvar_595_ _substvar_204_))
(assert (= _substvar_208_ (bvand _substvar_202_ _substvar_207_)))
(assert (= _substvar_579_ (bvand _substvar_578_ _substvar_208_)))
(assert (= _substvar_213_ (bvand _substvar_579_ _substvar_595_)))
(assert (= (= _substvar_214_ (_ bv1 1)) (bvsle _substvar_192_ _substvar_572_)))
(assert (= _substvar_874_ _substvar_214_))
(assert (= _substvar_876_ (bvand _substvar_213_ _substvar_874_)))
(assert (= _substvar_879_ (bvand _substvar_876_ _substvar_878_)))
(assert (= _substvar_259_ (bvand _substvar_199_ _substvar_879_)))
(assert (= (= _substvar_588_ (_ bv1 1)) (=> (= _substvar_259_ (_ bv1 1)) _substvar_487_)))
(assert (= _substvar_589_ _substvar_588_))
(assert (= (= _substvar_590_ (_ bv1 1)) (=> _substvar_494_ (= _substvar_589_ (_ bv1 1)))))
(assert (= _substvar_591_ _substvar_590_))
(assert (= (= _substvar_881_ (_ bv1 1)) (= (_ bv0 1) _substvar_591_)))
(assert (= (_ bv1 1) _substvar_881_))
(check-sat)
(exit)
